30
30
1
3
3600
562 646 828 971 1183 1298 1497 1552 1632 1803 1893 1920 1988 2027 2051 2078 2118 2216 2348 2413 2481 2509 2519 2535 2550 2689 2734 2799 2904 2981 
20 20 30 14 36 10 33 9 10 40 33 5 40 24 38 33 20 11 23 11 31 22 35 38 6 33 19 33 36 9 
